; benchmark generated from python API
(set-info :status unknown)
(declare-fun x_months () Int)
(declare-fun x_beta () Int)
(assert
 (<= (- 1202) x_months))
(assert
 (>= 1209 x_months))
(assert
 (>= x_beta 0))
(assert
 (let ((?x1906 (+ x_months 24003)))
 (let ((?x1819 (- ?x1906 (* (div (- ?x1906 1) 12) 12))))
 (let ((?x2198 (ite (or (= ?x1819 4) (= ?x1819 6) (= ?x1819 9) (= ?x1819 11)) 30 31)))
 (let (($x2071 (and (= (mod (div (- ?x1906 1) 12) 4) 0) (and (distinct (mod (div (- ?x1906 1) 12) 100) 0) true))))
 (let ((?x1097 (ite (or $x2071 (= (mod (div (- ?x1906 1) 12) 400) 0)) 29 28)))
 (< x_beta (ite (= ?x1819 2) ?x1097 ?x2198))))))))
(assert
 (let (($x1864 (and (= x_months (- (+ (* 2023 12) 1) 24003)) (<= 0 x_beta))))
 (or (> x_months (- (+ (* 2023 12) 1) 24003)) $x1864)))
(assert
 (let ((?x1542 (+ x_beta 1)))
(let ((?x2008 (+ (+ x_months 0) 24003)))
(let ((?x2010 (- ?x2008 (* (div (- ?x2008 1) 12) 12))))
(let ((?x2056 (ite (or (= ?x2010 4) (= ?x2010 6) (= ?x2010 9) (= ?x2010 11)) 30 31)))
(let (($x2038 (and (= (mod (div (- ?x2008 1) 12) 4) 0) (and (distinct (mod (div (- ?x2008 1) 12) 100) 0) true))))
(let (($x2042 (or $x2038 (= (mod (div (- ?x2008 1) 12) 400) 0))))
(let ((?x2059 (ite (= ?x2010 2) (ite $x2042 29 28) ?x2056)))
(let (($x986 (> 1 ?x1542)))
(let ((?x2068 (ite $x986 1 (ite (> ?x1542 ?x2059) ?x2059 ?x1542))))
(let ((?x2087 (ite (> 1 ?x2068) 1 (ite (> ?x2068 ?x2059) ?x2059 ?x2068))))
(let ((?x2124 (ite (= 2 ?x2010) (ite $x2042 31 31) (ite (= 1 ?x2010) (ite $x2042 0 0) 0))))
(let ((?x2132 (ite (= 4 ?x2010) (ite $x2042 91 90) (ite (= 3 ?x2010) (ite $x2042 60 59) ?x2124))))
(let ((?x2142 (ite (= 6 ?x2010) (ite $x2042 152 151) (ite (= 5 ?x2010) (ite $x2042 121 120) ?x2132))))
(let ((?x2156 (ite (= 8 ?x2010) (ite $x2042 213 212) (ite (= 7 ?x2010) (ite $x2042 182 181) ?x2142))))
(let ((?x2180 (ite (= 10 ?x2010) (ite $x2042 274 273) (ite (= 9 ?x2010) (ite $x2042 244 243) ?x2156))))
(let ((?x1292 (ite (= 12 ?x2010) (ite $x2042 335 334) (ite (= 11 ?x2010) (ite $x2042 305 304) ?x2180))))
(let ((?x2105 (+ (* 365 (- (div (- ?x2008 1) 12) 1)) (div (- (div (- ?x2008 1) 12) 1) 4))))
(let ((?x2114 (+ (- ?x2105 (div (- (div (- ?x2008 1) 12) 1) 100)) (div (- (div (- ?x2008 1) 12) 1) 400))))
(let ((?x513 (+ (+ (- (+ (+ ?x2114 ?x1292) (- ?x2087 1)) 730179) 31) 730179)))
(let ((?x1171 (mod ?x513 146097)))
(let ((?x464 (div ?x1171 36524)))
(let ((?x1168 (ite (<= 4 ?x464) 3 ?x464)))
(let ((?x2063 (- ?x1171 (* ?x1168 36524))))
(let ((?x1558 (mod ?x2063 1461)))
(let ((?x2064 (div ?x1558 365)))
(let ((?x1554 (ite (<= 4 ?x2064) 3 ?x2064)))
(let ((?x1213 (+ (+ (* (div ?x513 146097) 400) (* ?x1168 100)) (* (div ?x2063 1461) 4))))
(let ((?x406 (+ (+ ?x1213 ?x1554) 1)))
(let (($x1291 (or (and (= (mod ?x406 4) 0) (and (distinct (mod ?x406 100) 0) true)) (= (mod ?x406 400) 0))))
(let ((?x1556 (- ?x1558 (* ?x1554 365))))
(let ((?x1199 (ite $x1291 31 31)))
(let (($x1989 (>= ?x1556 ?x1199)))
(let ((?x1416 (ite $x1989 (+ (- ?x1556 ?x1199) 1) (+ (- ?x1556 (ite $x1291 0 0)) 1))))
(let ((?x1438 (ite $x1291 60 59)))
(let (($x1508 (>= ?x1556 ?x1438)))
(let ((?x1280 (ite $x1291 91 90)))
(let (($x453 (>= ?x1556 ?x1280)))
(let ((?x1252 (ite $x453 (+ (- ?x1556 ?x1280) 1) (ite $x1508 (+ (- ?x1556 ?x1438) 1) ?x1416))))
(let ((?x1448 (ite $x1291 121 120)))
(let (($x367 (>= ?x1556 ?x1448)))
(let ((?x1453 (ite $x1291 152 151)))
(let (($x368 (>= ?x1556 ?x1453)))
(let ((?x1541 (ite $x368 (+ (- ?x1556 ?x1453) 1) (ite $x367 (+ (- ?x1556 ?x1448) 1) ?x1252))))
(let ((?x1451 (ite $x1291 182 181)))
(let (($x582 (>= ?x1556 ?x1451)))
(let ((?x1449 (ite $x1291 213 212)))
(let (($x1256 (>= ?x1556 ?x1449)))
(let ((?x1241 (ite $x1256 (+ (- ?x1556 ?x1449) 1) (ite $x582 (+ (- ?x1556 ?x1451) 1) ?x1541))))
(let ((?x1450 (ite $x1291 244 243)))
(let (($x1257 (>= ?x1556 ?x1450)))
(let ((?x395 (ite $x1291 274 273)))
(let (($x2037 (>= ?x1556 ?x395)))
(let ((?x1299 (ite $x2037 (+ (- ?x1556 ?x395) 1) (ite $x1257 (+ (- ?x1556 ?x1450) 1) ?x1241))))
(let ((?x317 (ite $x1291 305 304)))
(let (($x1304 (>= ?x1556 ?x317)))
(let ((?x397 (ite $x1291 335 334)))
(let (($x1181 (>= ?x1556 ?x397)))
(let ((?x1614 (ite $x1181 (+ (- ?x1556 ?x397) 1) (ite $x1304 (+ (- ?x1556 ?x317) 1) ?x1299))))
(let (($x2089 (= 31 0)))
(let ((?x898 (+ (+ x_months 1) 24003)))
(let ((?x1938 (- ?x898 (* (div (- ?x898 1) 12) 12))))
(let ((?x1610 (ite (or (= ?x1938 4) (= ?x1938 6) (= ?x1938 9) (= ?x1938 11)) 30 31)))
(let (($x1710 (and (= (mod (div (- ?x898 1) 12) 4) 0) (and (distinct (mod (div (- ?x898 1) 12) 100) 0) true))))
(let (($x1566 (or $x1710 (= (mod (div (- ?x898 1) 12) 400) 0))))
(let ((?x784 (ite (= ?x1938 2) (ite $x1566 29 28) ?x1610)))
(let ((?x888 (ite $x986 1 (ite (> ?x1542 ?x784) ?x784 ?x1542))))
(let ((?x1425 (ite (> 1 ?x888) 1 (ite (> ?x888 ?x784) ?x784 ?x888))))
(let ((?x225 (ite (= 2 ?x1938) (ite $x1566 31 31) (ite (= 1 ?x1938) (ite $x1566 0 0) 0))))
(let ((?x1903 (ite (= 4 ?x1938) (ite $x1566 91 90) (ite (= 3 ?x1938) (ite $x1566 60 59) ?x225))))
(let ((?x1569 (ite (= 6 ?x1938) (ite $x1566 152 151) (ite (= 5 ?x1938) (ite $x1566 121 120) ?x1903))))
(let ((?x2076 (ite (= 8 ?x1938) (ite $x1566 213 212) (ite (= 7 ?x1938) (ite $x1566 182 181) ?x1569))))
(let ((?x1866 (ite (= 10 ?x1938) (ite $x1566 274 273) (ite (= 9 ?x1938) (ite $x1566 244 243) ?x2076))))
(let ((?x2084 (ite (= 12 ?x1938) (ite $x1566 335 334) (ite (= 11 ?x1938) (ite $x1566 305 304) ?x1866))))
(let ((?x1889 (+ (* 365 (- (div (- ?x898 1) 12) 1)) (div (- (div (- ?x898 1) 12) 1) 4))))
(let ((?x1512 (+ (- ?x1889 (div (- (div (- ?x898 1) 12) 1) 100)) (div (- (div (- ?x898 1) 12) 1) 400))))
(let ((?x1813 (+ (+ (- (+ (+ ?x1512 ?x2084) (- ?x1425 1)) 730179) 0) 730179)))
(let ((?x1497 (mod ?x1813 146097)))
(let ((?x1739 (div ?x1497 36524)))
(let ((?x1755 (ite (<= 4 ?x1739) 3 ?x1739)))
(let ((?x495 (- ?x1497 (* ?x1755 36524))))
(let ((?x1844 (mod ?x495 1461)))
(let ((?x1841 (div ?x1844 365)))
(let ((?x241 (ite (<= 4 ?x1841) 3 ?x1841)))
(let ((?x1946 (+ (+ (* (div ?x1813 146097) 400) (* ?x1755 100)) (* (div ?x495 1461) 4))))
(let ((?x2070 (+ (+ ?x1946 ?x241) 1)))
(let (($x836 (or (and (= (mod ?x2070 4) 0) (and (distinct (mod ?x2070 100) 0) true)) (= (mod ?x2070 400) 0))))
(let ((?x1506 (- ?x1844 (* ?x241 365))))
(let ((?x954 (ite $x836 31 31)))
(let (($x1964 (>= ?x1506 ?x954)))
(let ((?x1161 (ite $x1964 (+ (- ?x1506 ?x954) 1) (+ (- ?x1506 (ite $x836 0 0)) 1))))
(let ((?x905 (ite $x836 60 59)))
(let (($x544 (>= ?x1506 ?x905)))
(let ((?x628 (ite $x836 91 90)))
(let (($x1677 (>= ?x1506 ?x628)))
(let ((?x1439 (ite $x1677 (+ (- ?x1506 ?x628) 1) (ite $x544 (+ (- ?x1506 ?x905) 1) ?x1161))))
(let ((?x635 (ite $x836 121 120)))
(let (($x1570 (>= ?x1506 ?x635)))
(let ((?x946 (ite $x836 152 151)))
(let (($x1052 (>= ?x1506 ?x946)))
(let ((?x1924 (ite $x1052 (+ (- ?x1506 ?x946) 1) (ite $x1570 (+ (- ?x1506 ?x635) 1) ?x1439))))
(let ((?x399 (ite $x836 182 181)))
(let (($x1538 (>= ?x1506 ?x399)))
(let ((?x982 (ite $x836 213 212)))
(let (($x1539 (>= ?x1506 ?x982)))
(let ((?x1939 (ite $x1539 (+ (- ?x1506 ?x982) 1) (ite $x1538 (+ (- ?x1506 ?x399) 1) ?x1924))))
(let ((?x1138 (ite $x836 244 243)))
(let (($x1192 (>= ?x1506 ?x1138)))
(let ((?x1521 (ite $x836 274 273)))
(let (($x1652 (>= ?x1506 ?x1521)))
(let ((?x1955 (ite $x1652 (+ (- ?x1506 ?x1521) 1) (ite $x1192 (+ (- ?x1506 ?x1138) 1) ?x1939))))
(let ((?x245 (ite $x836 305 304)))
(let (($x1457 (>= ?x1506 ?x245)))
(let ((?x1673 (ite $x836 335 334)))
(let (($x1456 (>= ?x1506 ?x1673)))
(let ((?x1981 (ite $x1456 (+ (- ?x1506 ?x1673) 1) (ite $x1457 (+ (- ?x1506 ?x245) 1) ?x1955))))
(let (($x1067 (= 0 0)))
(let ((?x1594 (ite $x367 5 (ite $x453 4 (ite $x1508 3 (ite $x1989 2 1))))))
(let ((?x2033 (ite $x1257 9 (ite $x1256 8 (ite $x582 7 (ite $x368 6 ?x1594))))))
(let ((?x1177 (ite $x1181 12 (ite $x1304 11 (ite $x2037 10 ?x2033)))))
(let ((?x1261 (+ (* (ite $x2089 (div (- ?x2008 1) 12) ?x406) 12) (ite $x2089 ?x2010 ?x1177))))
(let ((?x2178 (- ?x1261 24003)))
(let ((?x1545 (ite $x1570 5 (ite $x1677 4 (ite $x544 3 (ite $x1964 2 1))))))
(let ((?x1195 (ite $x1192 9 (ite $x1539 8 (ite $x1538 7 (ite $x1052 6 ?x1545))))))
(let ((?x1994 (+ (* (ite $x1067 (div (- ?x898 1) 12) ?x2070) 12) (ite $x1067 ?x1938 (ite $x1456 12 (ite $x1457 11 (ite $x1652 10 ?x1195)))))))
(let ((?x1993 (- ?x1994 24003)))
(let (($x1639 (and (= ?x1993 ?x2178) (<= (- (ite $x1067 ?x1425 ?x1981) 1) (- (ite $x2089 ?x2087 ?x1614) 1)))))
(not (or (< ?x1993 ?x2178) $x1639)))))))))))))))))))))))))))))))))))))))))))))))))))))))))))))))))))))))))))))))))))))))))))))))))))))))))))))))))))))))))))))))))
(check-sat)
